(set-logic AUFLIRA)
(declare-const a (_ BitVec 8))
(declare-const b (_ BitVec 8))
(declare-const c Int)
(assert (= b (bvadd a (_ bv20 8))))
(assert (= c (bv2int b)))
(check-sat)
(get-value (c))
(exit)
